WARNING: for repeatability, setting FPU to use double precision
============================[ Problem Statistics ]=============================
|                                                                             |
|  Number of variables:         72693                                         |
|  Number of clauses:          141722                                         |
|  Parse time:                   0.07 s                                       |
|                                                                             |
============================[ Search Statistics ]==============================
| Conflicts |          ORIGINAL         |          LEARNT          | Progress |
|           |    Vars  Clauses Literals |    Limit  Clauses Lit/Cl |          |
===============================================================================
|       100 |   35512   131030   297572 |    48044      100     81 | 51.148 % |
|       250 |   35512   131030   297572 |    52848      250     50 | 51.148 % |
|       475 |   35512   131030   297572 |    58133      475     70 | 51.148 % |
|       812 |   35512   131030   297572 |    63947      812     76 | 51.148 % |
|      1318 |   35512   131030   297572 |    70341     1318     88 | 51.148 % |
|      2077 |   35512   131030   297572 |    77375     2077     79 | 51.148 % |
|      3216 |   35512   131030   297572 |    85113     3216    101 | 51.148 % |
|      4924 |   35512   131030   297572 |    93624     4924     91 | 51.148 % |
|      7486 |   35512   131030   297572 |   102987     7486     97 | 51.148 % |
|     11330 |   35512   131030   297572 |   113286    11330    102 | 51.148 % |
===============================================================================
restarts              : 52
conflicts             : 11948          (3854 /sec)
decisions             : 56291          (0.00 % random) (18157 /sec)
propagations          : 19628418       (6331354 /sec)
conflict literals     : 1218633        (13.08 % deleted)
Memory used           : 33.00 MB
CPU time              : 3.10019 s

SATISFIABLE
